p cnf 23 7
a 1 2 0
e 3 0
a 4 0
e 5 6 7 0
a 8 9 10 11 0
e 12 0
a 13 14 15 0
e 16 17 18 0
a 19 0
e 20 21 22 23 0
-3 -16 2 10 -20 0
3 -21 -13 -15 19 0
19 18 15 4 0
-22 3 -17 2 -4 0
8 -23 14 0
-3 13 0
19 6 11 -4 -21 0
